%mem=30GB
%nprocshared=16
%chk=MOF-5_fragment.chk
#P TPSSh/genecp opt freq int=fine

Title Card Required

0 1
 C                 -0.00000000   -6.41623354    4.53696224
 C                  0.00000000   -5.14581896    5.12455656
 C                  0.00000000   -6.54675124    3.14333912
 H                  0.00000000   -5.07118311    6.21523566
 H                  0.00000000   -7.55017475    2.70941206
 C                  5.55662124    3.20811677    4.53696224
 C                  4.45640994    2.57290948    5.12455656
 C                  5.66965289    3.27337562    3.14333912
 H                  4.39177340    2.53559155    6.21523566
 H                  6.53864313    3.77508737    2.70941206
 Zn                 0.00000000   -1.83176743   -0.64762759
 Zn                 1.58635713    0.91588372   -0.64762759
 Zn                -1.58635713    0.91588372   -0.64762759
 Zn                 0.00000000    0.00000000    1.94288276
 O                 -0.00000000   -0.00000000   -0.00000000
 O                  1.56023914   -2.21197945   -1.73750027
 O                  1.13551083    2.45719645   -1.73750027
 O                 -2.69574996   -0.24521700   -1.73750027
 O                 -1.56023914   -2.21197945   -1.73750027
 O                 -1.13551083    2.45719645   -1.73750027
 O                  2.69574996   -0.24521700   -1.73750027
 O                 -2.69574996    1.55639197    0.81035957
 O                  0.00000000   -1.80160897    2.66464098
 O                 -0.00000000   -3.11278393    0.81035957
 O                 -1.56023914    0.90080449    2.66464098
 O                  1.56023914    0.90080449    2.66464098
 O                  2.69574996    1.55639197    0.81035957
 C                  2.53529257   -1.46375185   -2.07005772
 C                  0.00000000    2.92750370   -2.07005772
 C                 -2.53529257   -1.46375185   -2.07005772
 C                 -2.53529257    1.46375185    2.07005772
 C                 -0.00000000   -2.92750370    2.07005772
 C                  2.53529257    1.46375185    2.07005772
 C                  5.55662124   -3.20811677   -4.53696224
 C                  3.58833419   -2.07172571   -2.92986260
 C                  0.00000000    6.41623354   -4.53696224
 C                  0.00000000    4.14345142   -2.92986260
 C                 -3.58833419   -2.07172571   -2.92986260
 C                 -5.55662124   -3.20811677   -4.53696224
 C                 -3.58833419    2.07172571    2.92986260
 C                 -0.00000000   -4.14345142    2.92986260
 C                  3.58833419    2.07172571    2.92986260
 C                  4.45640994   -3.97384176   -4.13394784
 C                  3.47530254   -3.40739914   -3.33287700
 C                  1.21324295    5.84628510   -4.13394784
 C                  1.21324295    4.71339986   -3.33287700
 C                 -4.68854549   -1.30600072   -3.33287700
 C                 -5.66965289   -1.87244334   -4.13394784
 C                 -4.45640994   -3.97384176   -4.13394784
 C                 -3.47530254   -3.40739914   -3.33287700
 C                 -1.21324295    5.84628510   -4.13394784
 C                 -1.21324295    4.71339986   -3.33287700
 C                  4.68854549   -1.30600072   -3.33287700
 C                  5.66965289   -1.87244334   -4.13394784
 C                 -4.68854549    2.70693300    2.34226829
 C                  0.00000000   -4.01293372    4.32348572
 C                 -0.00000000   -5.41386600    2.34226829
 C                 -3.47530254    2.00646686    4.32348572
 C                  3.47530254    2.00646686    4.32348572
 C                  4.68854549    2.70693300    2.34226829
 H                  4.39177340   -5.01458319   -4.46232386
 H                  2.60631230   -3.98374675   -3.00450098
 H                  2.14686974    6.31067893   -4.46232386
 H                  2.14686974    4.24900603   -3.00450098
 H                 -4.75318204   -0.26525929   -3.00450098
 H                 -6.53864313   -1.29609573   -4.46232386
 H                 -4.39177340   -5.01458319   -4.46232386
 H                 -2.60631230   -3.98374675   -3.00450098
 H                 -2.14686974    6.31067893   -4.46232386
 H                 -2.14686974    4.24900603   -3.00450098
 H                  4.75318204   -0.26525929   -3.00450098
 H                  6.53864313   -1.29609573   -4.46232386
 H                 -4.75318204    2.74425093    1.25158918
 H                  0.00000000   -3.00951021    4.75741278
 H                 -0.00000000   -5.48850186    1.25158918
 H                 -2.60631230    1.50475511    4.75741278
 H                  2.60631230    1.50475511    4.75741278
 H                  4.75318204    2.74425093    1.25158918
 C                 -5.55662124    3.20811677    4.53696224
 C                 -5.66965289    3.27337562    3.14333912
 C                 -4.45640994    2.57290948    5.12455656
 H                 -6.53864313    3.77508737    2.70941206
 H                 -4.39177340    2.53559155    6.21523566
 H                 -6.31322550    3.64494244    5.15472703
 H                 -0.00000000   -7.28988488    5.15472703
 H                  0.00000000    7.28988488   -5.15472703
 H                  6.31322550   -3.64494244   -5.15472703
 H                 -6.31322550   -3.64494244   -5.15472703
 H                  6.31322550    3.64494244    5.15472703

C H O
6-311G*
****
Zn
SDD
****

Zn
SDD

