#Generated by Multiwfn (http://sobereva.com/multiwfn)
&GLOBAL
  PROJECT freq
  PRINT_LEVEL MEDIUM
  RUN_TYPE VIBRATIONAL_ANALYSIS
&END GLOBAL

&FORCE_EVAL
  METHOD Quickstep
  &SUBSYS
    &CELL
      A    16.99927817     0.00000000     0.00000000
      B    -8.49963911    14.72180676     0.00000000
      C     0.00000000     0.00000000    22.46050431
      PERIODIC XYZ #Direction of applied PBC (geometry aspect)
    &END CELL
    &COORD
      Cl       1.69992782    0.98145378   12.45550975
      Fe       0.00000000    0.00000000   11.23025216
      Cl      -0.00000000    1.96290757   10.00499456
      Cl      -0.00000001    3.92581514   12.45550975
      Fe      -1.69992782    2.94436135   11.23025216
      Cl      -1.69992783    4.90726892   10.00499456
      Cl      -1.69992783    6.87017649   12.45550975
      Fe      -3.39985564    5.88872270   11.23025216
      Cl      -3.39985565    7.85163027   10.00499456
      Cl      -3.39985565    9.81453784   12.45550975
      Fe      -5.09978347    8.83308405   11.23025216
      Cl      -5.09978347   10.79599162   10.00499456
      Cl      -5.09978347   12.75889919   12.45550975
      Fe      -6.79971129   11.77744541   11.23025216
      Cl      -6.79971129   13.74035297   10.00499456
      Cl       5.09978345    0.98145378   12.45550975
      Fe       3.39985563    0.00000000   11.23025216
      Cl       3.39985563    1.96290757   10.00499456
      Cl       3.39985563    3.92581514   12.45550975
      Fe       1.69992781    2.94436135   11.23025216
      Cl       1.69992781    4.90726892   10.00499456
      Cl       1.69992781    6.87017649   12.45550975
      Fe      -0.00000001    5.88872270   11.23025216
      Cl      -0.00000001    7.85163027   10.00499456
      Cl      -0.00000002    9.81453784   12.45550975
      Fe      -1.69992783    8.83308405   11.23025216
      Cl      -1.69992784   10.79599162   10.00499456
      Cl      -1.69992784   12.75889919   12.45550975
      Fe      -3.39985565   11.77744541   11.23025216
      Cl      -3.39985566   13.74035297   10.00499456
      Cl       8.49963908    0.98145378   12.45550975
      Fe       6.79971127    0.00000000   11.23025216
      Cl       6.79971127    1.96290757   10.00499456
      Cl       6.79971126    3.92581514   12.45550975
      Fe       5.09978345    2.94436135   11.23025216
      Cl       5.09978344    4.90726892   10.00499456
      Cl       5.09978344    6.87017649   12.45550975
      Fe       3.39985562    5.88872270   11.23025216
      Cl       3.39985562    7.85163027   10.00499456
      Cl       3.39985562    9.81453784   12.45550975
      Fe       1.69992780    8.83308405   11.23025216
      Cl       1.69992780   10.79599162   10.00499456
      Cl       1.69992780   12.75889919   12.45550975
      Fe      -0.00000002   11.77744541   11.23025216
      Cl      -0.00000002   13.74035297   10.00499456
      Cl      11.89949472    0.98145378   12.45550975
      Fe      10.19956690    0.00000000   11.23025216
      Cl      10.19956690    1.96290757   10.00499456
      Cl      10.19956690    3.92581514   12.45550975
      Fe       8.49963908    2.94436135   11.23025216
      Cl       8.49963908    4.90726892   10.00499456
      Cl       8.49963907    6.87017649   12.45550975
      Fe       6.79971126    5.88872270   11.23025216
      Cl       6.79971126    7.85163027   10.00499456
      Cl       6.79971125    9.81453784   12.45550975
      Fe       5.09978344    8.83308405   11.23025216
      Cl       5.09978343   10.79599162   10.00499456
      Cl       5.09978343   12.75889919   12.45550975
      Fe       3.39985561   11.77744541   11.23025216
      Cl       3.39985561   13.74035297   10.00499456
      Cl      15.29935035    0.98145378   12.45550975
      Fe      13.59942254    0.00000000   11.23025216
      Cl      13.59942253    1.96290757   10.00499456
      Cl      13.59942253    3.92581514   12.45550975
      Fe      11.89949472    2.94436135   11.23025216
      Cl      11.89949471    4.90726892   10.00499456
      Cl      11.89949471    6.87017649   12.45550975
      Fe      10.19956689    5.88872270   11.23025216
      Cl      10.19956689    7.85163027   10.00499456
      Cl      10.19956689    9.81453784   12.45550975
      Fe       8.49963907    8.83308405   11.23025216
      Cl       8.49963907   10.79599162   10.00499456
      Cl       8.49963906   12.75889919   12.45550975
      Fe       6.79971125   11.77744541   11.23025216
      Cl       6.79971125   13.74035297   10.00499456
    &END COORD
    &KIND Cl   
      ELEMENT Cl
      BASIS_SET DZVP-MOLOPT-SR-GTH
      POTENTIAL GTH-PBE
    &END KIND
    &KIND Fe   
      ELEMENT Fe
      BASIS_SET DZVP-MOLOPT-SR-GTH
      POTENTIAL GTH-PBE
    &END KIND
  &END SUBSYS

  &DFT
    BASIS_SET_FILE_NAME  BASIS_MOLOPT
    POTENTIAL_FILE_NAME  POTENTIAL
#   WFN_RESTART_FILE_NAME freq-RESTART.wfn
    CHARGE    0 #Net charge
    MULTIPLICITY    1 #Spin multiplicity
    &QS
      EPS_DEFAULT 1E-10 #This is default. Set all EPS_xxx to values such that the energy will be correct up to this value
    &END QS
    &POISSON
      PERIODIC XYZ #Direction(s) of PBC for calculating electrostatics
      PSOLVER PERIODIC #The way to solve Poisson equation
    &END POISSON
    &XC
      &XC_FUNCTIONAL PBE
      &END XC_FUNCTIONAL
    &END XC
    &MGRID
      CUTOFF 400
      REL_CUTOFF 55
    &END MGRID
    &SCF
      MAX_SCF 128
      EPS_SCF 1.0E-07 #Convergence threshold of density matrix during SCF
#     SCF_GUESS RESTART #Use wavefunction from WFN_RESTART_FILE_NAME file as initial guess
      &DIAGONALIZATION
        ALGORITHM STANDARD #Algorithm for diagonalization. DAVIDSON is faster for large systems
      &END DIAGONALIZATION
      &MIXING #How to mix old and new density matrices
        METHOD BROYDEN_MIXING #PULAY_MIXING is also a good alternative
        ALPHA 0.4 #Default. Mixing 40% of new density matrix with the old one
        NBROYDEN 8 #Default is 4. Number of previous steps stored for the actual mixing scheme
      &END MIXING
      &PRINT
        &RESTART OFF #Do not generate wfn file to suppress meaningless I/O cost
        &END RESTART
      &END PRINT
    &END SCF
    &PRINT
      &MOMENTS
      &END MOMENTS
    &END PRINT
  &END DFT
&END FORCE_EVAL

&MOTION
  &PRINT
    &RESTART
      BACKUP_COPIES 0 #Maximum number of backing up restart file, 0 means never
    &END RESTART
  &END PRINT
&END MOTION
&VIBRATIONAL_ANALYSIS
  DX 0.01 #Step size of finite difference. This is default (Bohr)
  NPROC_REP 1 #Number of processors to be used per replica. This is default
  TC_PRESSURE 101325 #1 atm. Pressure for calculate thermodynamic data (Pa)
  TC_TEMPERATURE 298.15 #Temperature for calculate thermodynamic data (K)
  THERMOCHEMISTRY #Print thermochemistry information (only valid for molecule in gas!)
  INTENSITIES T #Calculate IR intensities
  FULLY_PERIODIC T #Avoiding to project out rotation component from Hessian matrix
  &PRINT
    &MOLDEN_VIB #Output .mol (Molden file) for visualization vibrational modes
    &END MOLDEN_VIB
  &END PRINT
&END VIBRATIONAL_ANALYSIS
