#Generated by Multiwfn
&GLOBAL
  PROJECT CP2K_REPEAT
  PRINT_LEVEL LOW
  RUN_TYPE ENERGY
&END GLOBAL

&FORCE_EVAL
  METHOD Quickstep
  &SUBSYS
    &CELL
      A    25.86584000     0.00000000     0.00000000
      B     0.00000000    25.86584000     0.00000000
      C     0.00000000     0.00000000    25.86584000
      PERIODIC XYZ #Direction of applied PBC (geometry aspect)
    &END CELL
    &COORD
      Zn       7.58818388    7.58818388    5.34473612
      Zn      18.27765612   18.27765612   20.52110388
      Zn      18.27765612   18.27765612    5.34473612
      Zn       7.58818388    7.58818388   20.52110388
      Zn      18.27765612    7.58818388   20.52110388
      Zn       7.58818388   18.27765612    5.34473612
      Zn       7.58818388   18.27765612   20.52110388
      Zn      18.27765612    7.58818388    5.34473612
      Zn       5.34473612    7.58818388    7.58818388
      Zn      20.52110388   18.27765612   18.27765612
      Zn       5.34473612   18.27765612   18.27765612
      Zn      20.52110388    7.58818388    7.58818388
      Zn      20.52110388   18.27765612    7.58818388
      Zn       5.34473612    7.58818388   18.27765612
      Zn      20.52110388    7.58818388   18.27765612
      Zn       5.34473612   18.27765612    7.58818388
      Zn       7.58818388    5.34473612    7.58818388
      Zn      18.27765612   20.52110388   18.27765612
      Zn      18.27765612    5.34473612   18.27765612
      Zn       7.58818388   20.52110388    7.58818388
      Zn       7.58818388   20.52110388   18.27765612
      Zn      18.27765612    5.34473612    7.58818388
      Zn      18.27765612   20.52110388    7.58818388
      Zn       7.58818388    5.34473612   18.27765612
      Zn       5.34473612   20.52110388   20.52110388
      Zn      20.52110388    5.34473612    5.34473612
      Zn       5.34473612    5.34473612    5.34473612
      Zn      20.52110388   20.52110388   20.52110388
      Zn      20.52110388    5.34473612   20.52110388
      Zn       5.34473612   20.52110388    5.34473612
      Zn      20.52110388   20.52110388    5.34473612
      Zn       5.34473612    5.34473612   20.52110388
      O        6.46646000    6.46646000    6.46646000
      O       19.39938000   19.39938000   19.39938000
      O       19.39938000   19.39938000    6.46646000
      O        6.46646000    6.46646000   19.39938000
      O       19.39938000    6.46646000   19.39938000
      O        6.46646000   19.39938000    6.46646000
      O        6.46646000   19.39938000   19.39938000
      O       19.39938000    6.46646000    6.46646000
      O        7.26938741    9.47589875    5.66353259
      O       18.59645259   16.38994125   20.20230741
      O       18.59645259   16.38994125    5.66353259
      O        7.26938741    9.47589875   20.20230741
      O       18.59645259    9.47589875   20.20230741
      O        7.26938741   16.38994125    5.66353259
      O        7.26938741   16.38994125   20.20230741
      O       18.59645259    9.47589875    5.66353259
      O        5.66353259    7.26938741    9.47589875
      O       20.20230741   18.59645259   16.38994125
      O        5.66353259   18.59645259   16.38994125
      O       20.20230741    7.26938741    9.47589875
      O       20.20230741   18.59645259    9.47589875
      O        5.66353259    7.26938741   16.38994125
      O       20.20230741    7.26938741   16.38994125
      O        5.66353259   18.59645259    9.47589875
      O        9.47589875    5.66353259    7.26938741
      O       16.38994125   20.20230741   18.59645259
      O       16.38994125    5.66353259   18.59645259
      O        9.47589875   20.20230741    7.26938741
      O        9.47589875   20.20230741   18.59645259
      O       16.38994125    5.66353259    7.26938741
      O       16.38994125   20.20230741    7.26938741
      O        9.47589875    5.66353259   18.59645259
      O        9.47589875    7.26938741   20.20230741
      O       16.38994125   18.59645259    5.66353259
      O       16.38994125   18.59645259   20.20230741
      O        9.47589875    7.26938741    5.66353259
      O        9.47589875   18.59645259    5.66353259
      O       16.38994125    7.26938741   20.20230741
      O       16.38994125    7.26938741    5.66353259
      O        9.47589875   18.59645259   20.20230741
      O        7.26938741    5.66353259   16.38994125
      O       18.59645259   20.20230741    9.47589875
      O       18.59645259    5.66353259    9.47589875
      O        7.26938741   20.20230741   16.38994125
      O       18.59645259   20.20230741   16.38994125
      O        7.26938741    5.66353259    9.47589875
      O        7.26938741   20.20230741    9.47589875
      O       18.59645259    5.66353259   16.38994125
      O        5.66353259    9.47589875   18.59645259
      O       20.20230741   16.38994125    7.26938741
      O        5.66353259   16.38994125    7.26938741
      O       20.20230741    9.47589875   18.59645259
      O       20.20230741    9.47589875    7.26938741
      O        5.66353259   16.38994125   18.59645259
      O       20.20230741   16.38994125   18.59645259
      O        5.66353259    9.47589875    7.26938741
      O        7.26938741   22.40881875   18.59645259
      O       18.59645259    3.45702125    7.26938741
      O       18.59645259    3.45702125   18.59645259
      O        7.26938741   22.40881875    7.26938741
      O       18.59645259   22.40881875    7.26938741
      O        7.26938741    3.45702125   18.59645259
      O        7.26938741    3.45702125    7.26938741
      O       18.59645259   22.40881875   18.59645259
      O        5.66353259   20.20230741   22.40881875
      O       20.20230741    5.66353259    3.45702125
      O        5.66353259    5.66353259    3.45702125
      O       20.20230741   20.20230741   22.40881875
      O       20.20230741    5.66353259   22.40881875
      O        5.66353259   20.20230741    3.45702125
      O       20.20230741   20.20230741    3.45702125
      O        5.66353259    5.66353259   22.40881875
      O        7.26938741   18.59645259    3.45702125
      O       18.59645259    7.26938741   22.40881875
      O       18.59645259   18.59645259   22.40881875
      O        7.26938741    7.26938741    3.45702125
      O       18.59645259    7.26938741    3.45702125
      O        7.26938741   18.59645259   22.40881875
      O        7.26938741    7.26938741   22.40881875
      O       18.59645259   18.59645259    3.45702125
      O        5.66353259   22.40881875    5.66353259
      O       20.20230741    3.45702125   20.20230741
      O        5.66353259    3.45702125   20.20230741
      O       20.20230741   22.40881875    5.66353259
      O       20.20230741   22.40881875   20.20230741
      O        5.66353259    3.45702125    5.66353259
      O       20.20230741    3.45702125    5.66353259
      O        5.66353259   22.40881875   20.20230741
      O       22.40881875    5.66353259   20.20230741
      O        3.45702125   20.20230741    5.66353259
      O        3.45702125    5.66353259    5.66353259
      O       22.40881875   20.20230741   20.20230741
      O       22.40881875   20.20230741    5.66353259
      O        3.45702125    5.66353259   20.20230741
      O        3.45702125   20.20230741   20.20230741
      O       22.40881875    5.66353259    5.66353259
      O       22.40881875    7.26938741    7.26938741
      O        3.45702125   18.59645259   18.59645259
      O        3.45702125   18.59645259    7.26938741
      O       22.40881875    7.26938741   18.59645259
      O       22.40881875   18.59645259   18.59645259
      O        3.45702125    7.26938741    7.26938741
      O        3.45702125    7.26938741   18.59645259
      O       22.40881875   18.59645259    7.26938741
      C        6.46646000   10.05190514    6.46646000
      C       19.39938000   15.81393486   19.39938000
      C       19.39938000   15.81393486    6.46646000
      C        6.46646000   10.05190514   19.39938000
      C       19.39938000   10.05190514   19.39938000
      C        6.46646000   15.81393486    6.46646000
      C        6.46646000   15.81393486   19.39938000
      C       19.39938000   10.05190514    6.46646000
      C        6.46646000    6.46646000   10.05190514
      C       19.39938000   19.39938000   15.81393486
      C        6.46646000   19.39938000   15.81393486
      C       19.39938000    6.46646000   10.05190514
      C       19.39938000   19.39938000   10.05190514
      C        6.46646000    6.46646000   15.81393486
      C       19.39938000    6.46646000   15.81393486
      C        6.46646000   19.39938000   10.05190514
      C       10.05190514    6.46646000    6.46646000
      C       15.81393486   19.39938000   19.39938000
      C       15.81393486    6.46646000   19.39938000
      C       10.05190514   19.39938000    6.46646000
      C       10.05190514   19.39938000   19.39938000
      C       15.81393486    6.46646000    6.46646000
      C       15.81393486   19.39938000    6.46646000
      C       10.05190514    6.46646000   19.39938000
      C        6.46646000   22.98482514   19.39938000
      C       19.39938000    2.88101486    6.46646000
      C       19.39938000    2.88101486   19.39938000
      C        6.46646000   22.98482514    6.46646000
      C       19.39938000   22.98482514    6.46646000
      C        6.46646000    2.88101486   19.39938000
      C        6.46646000    2.88101486    6.46646000
      C       19.39938000   22.98482514   19.39938000
      C        6.46646000   19.39938000   22.98482514
      C       19.39938000    6.46646000    2.88101486
      C        6.46646000    6.46646000    2.88101486
      C       19.39938000   19.39938000   22.98482514
      C       19.39938000    6.46646000   22.98482514
      C        6.46646000   19.39938000    2.88101486
      C       19.39938000   19.39938000    2.88101486
      C        6.46646000    6.46646000   22.98482514
      C       22.98482514    6.46646000   19.39938000
      C        2.88101486   19.39938000    6.46646000
      C        2.88101486    6.46646000    6.46646000
      C       22.98482514   19.39938000   19.39938000
      C       22.98482514   19.39938000    6.46646000
      C        2.88101486    6.46646000   19.39938000
      C        2.88101486   19.39938000   19.39938000
      C       22.98482514    6.46646000    6.46646000
      C        6.46646000   11.54113088    6.46646000
      C       19.39938000   14.32470912   19.39938000
      C       19.39938000   14.32470912    6.46646000
      C        6.46646000   11.54113088   19.39938000
      C       19.39938000   11.54113088   19.39938000
      C        6.46646000   14.32470912    6.46646000
      C        6.46646000   14.32470912   19.39938000
      C       19.39938000   11.54113088    6.46646000
      C        6.46646000    6.46646000   11.54113088
      C       19.39938000   19.39938000   14.32470912
      C        6.46646000   19.39938000   14.32470912
      C       19.39938000    6.46646000   11.54113088
      C       19.39938000   19.39938000   11.54113088
      C        6.46646000    6.46646000   14.32470912
      C       19.39938000    6.46646000   14.32470912
      C        6.46646000   19.39938000   11.54113088
      C       11.54113088    6.46646000    6.46646000
      C       14.32470912   19.39938000   19.39938000
      C       14.32470912    6.46646000   19.39938000
      C       11.54113088   19.39938000    6.46646000
      C       11.54113088   19.39938000   19.39938000
      C       14.32470912    6.46646000    6.46646000
      C       14.32470912   19.39938000    6.46646000
      C       11.54113088    6.46646000   19.39938000
      C        6.46646000   24.47405088   19.39938000
      C       19.39938000    1.39178912    6.46646000
      C       19.39938000    1.39178912   19.39938000
      C        6.46646000   24.47405088    6.46646000
      C       19.39938000   24.47405088    6.46646000
      C        6.46646000    1.39178912   19.39938000
      C        6.46646000    1.39178912    6.46646000
      C       19.39938000   24.47405088   19.39938000
      C        6.46646000   19.39938000   24.47405088
      C       19.39938000    6.46646000    1.39178912
      C        6.46646000    6.46646000    1.39178912
      C       19.39938000   19.39938000   24.47405088
      C       19.39938000    6.46646000   24.47405088
      C        6.46646000   19.39938000    1.39178912
      C       19.39938000   19.39938000    1.39178912
      C        6.46646000    6.46646000   24.47405088
      C       24.47405088    6.46646000   19.39938000
      C        1.39178912   19.39938000    6.46646000
      C        1.39178912    6.46646000    6.46646000
      C       24.47405088   19.39938000   19.39938000
      C       24.47405088   19.39938000    6.46646000
      C        1.39178912    6.46646000   19.39938000
      C        1.39178912   19.39938000   19.39938000
      C       24.47405088    6.46646000    6.46646000
      C        7.32435232   12.23917231    5.60856768
      C       18.54148768   13.62666769   20.25727232
      C       18.54148768   13.62666769    5.60856768
      C        7.32435232   12.23917231   20.25727232
      C       18.54148768   12.23917231   20.25727232
      C        7.32435232   13.62666769    5.60856768
      C        7.32435232   13.62666769   20.25727232
      C       18.54148768   12.23917231    5.60856768
      C        5.60856768    7.32435232   12.23917231
      C       20.25727232   18.54148768   13.62666769
      C        5.60856768   18.54148768   13.62666769
      C       20.25727232    7.32435232   12.23917231
      C       20.25727232   18.54148768   12.23917231
      C        5.60856768    7.32435232   13.62666769
      C       20.25727232    7.32435232   13.62666769
      C        5.60856768   18.54148768   12.23917231
      C       12.23917231    5.60856768    7.32435232
      C       13.62666769   20.25727232   18.54148768
      C       13.62666769    5.60856768   18.54148768
      C       12.23917231   20.25727232    7.32435232
      C       12.23917231   20.25727232   18.54148768
      C       13.62666769    5.60856768    7.32435232
      C       13.62666769   20.25727232    7.32435232
      C       12.23917231    5.60856768   18.54148768
      C       12.23917231    7.32435232   20.25727232
      C       13.62666769   18.54148768    5.60856768
      C       13.62666769   18.54148768   20.25727232
      C       12.23917231    7.32435232    5.60856768
      C       12.23917231   18.54148768    5.60856768
      C       13.62666769    7.32435232   20.25727232
      C       13.62666769    7.32435232    5.60856768
      C       12.23917231   18.54148768   20.25727232
      C        7.32435232    5.60856768   13.62666769
      C       18.54148768   20.25727232   12.23917231
      C       18.54148768    5.60856768   12.23917231
      C        7.32435232   20.25727232   13.62666769
      C       18.54148768   20.25727232   13.62666769
      C        7.32435232    5.60856768   12.23917231
      C        7.32435232   20.25727232   12.23917231
      C       18.54148768    5.60856768   13.62666769
      C        5.60856768   12.23917231   18.54148768
      C       20.25727232   13.62666769    7.32435232
      C        5.60856768   13.62666769    7.32435232
      C       20.25727232   12.23917231   18.54148768
      C       20.25727232   12.23917231    7.32435232
      C        5.60856768   13.62666769   18.54148768
      C       20.25727232   13.62666769   18.54148768
      C        5.60856768   12.23917231    7.32435232
      C        7.32435232   25.17209231   18.54148768
      C       18.54148768    0.69374769    7.32435232
      C       18.54148768    0.69374769   18.54148768
      C        7.32435232   25.17209231    7.32435232
      C       18.54148768   25.17209231    7.32435232
      C        7.32435232    0.69374769   18.54148768
      C        7.32435232    0.69374769    7.32435232
      C       18.54148768   25.17209231   18.54148768
      C        5.60856768   20.25727232   25.17209231
      C       20.25727232    5.60856768    0.69374769
      C        5.60856768    5.60856768    0.69374769
      C       20.25727232   20.25727232   25.17209231
      C       20.25727232    5.60856768   25.17209231
      C        5.60856768   20.25727232    0.69374769
      C       20.25727232   20.25727232    0.69374769
      C        5.60856768    5.60856768   25.17209231
      C        7.32435232   18.54148768    0.69374769
      C       18.54148768    7.32435232   25.17209231
      C       18.54148768   18.54148768   25.17209231
      C        7.32435232    7.32435232    0.69374769
      C       18.54148768    7.32435232    0.69374769
      C        7.32435232   18.54148768   25.17209231
      C        7.32435232    7.32435232   25.17209231
      C       18.54148768   18.54148768    0.69374769
      C        5.60856768   25.17209231    5.60856768
      C       20.25727232    0.69374769   20.25727232
      C        5.60856768    0.69374769   20.25727232
      C       20.25727232   25.17209231    5.60856768
      C       20.25727232   25.17209231   20.25727232
      C        5.60856768    0.69374769    5.60856768
      C       20.25727232    0.69374769    5.60856768
      C        5.60856768   25.17209231   20.25727232
      C       25.17209231    5.60856768   20.25727232
      C        0.69374769   20.25727232    5.60856768
      C        0.69374769    5.60856768    5.60856768
      C       25.17209231   20.25727232   20.25727232
      C       25.17209231   20.25727232    5.60856768
      C        0.69374769    5.60856768   20.25727232
      C        0.69374769   20.25727232   20.25727232
      C       25.17209231    5.60856768    5.60856768
      C       25.17209231    7.32435232    7.32435232
      C        0.69374769   18.54148768   18.54148768
      C        0.69374769   18.54148768    7.32435232
      C       25.17209231    7.32435232   18.54148768
      C       25.17209231   18.54148768   18.54148768
      C        0.69374769    7.32435232    7.32435232
      C        0.69374769    7.32435232   18.54148768
      C       25.17209231   18.54148768    7.32435232
      H        7.98452615   11.67040835    4.94839385
      H       17.88131385   14.19543165   20.91744615
      H       17.88131385   14.19543165    4.94839385
      H        7.98452615   11.67040835   20.91744615
      H       17.88131385   11.67040835   20.91744615
      H        7.98452615   14.19543165    4.94839385
      H        7.98452615   14.19543165   20.91744615
      H       17.88131385   11.67040835    4.94839385
      H        4.94839385    7.98452615   11.67040835
      H       20.91744615   17.88131385   14.19543165
      H        4.94839385   17.88131385   14.19543165
      H       20.91744615    7.98452615   11.67040835
      H       20.91744615   17.88131385   11.67040835
      H        4.94839385    7.98452615   14.19543165
      H       20.91744615    7.98452615   14.19543165
      H        4.94839385   17.88131385   11.67040835
      H       11.67040835    4.94839385    7.98452615
      H       14.19543165   20.91744615   17.88131385
      H       14.19543165    4.94839385   17.88131385
      H       11.67040835   20.91744615    7.98452615
      H       11.67040835   20.91744615   17.88131385
      H       14.19543165    4.94839385    7.98452615
      H       14.19543165   20.91744615    7.98452615
      H       11.67040835    4.94839385   17.88131385
      H       11.67040835    7.98452615   20.91744615
      H       14.19543165   17.88131385    4.94839385
      H       14.19543165   17.88131385   20.91744615
      H       11.67040835    7.98452615    4.94839385
      H       11.67040835   17.88131385    4.94839385
      H       14.19543165    7.98452615   20.91744615
      H       14.19543165    7.98452615    4.94839385
      H       11.67040835   17.88131385   20.91744615
      H        7.98452615    4.94839385   14.19543165
      H       17.88131385   20.91744615   11.67040835
      H       17.88131385    4.94839385   11.67040835
      H        7.98452615   20.91744615   14.19543165
      H       17.88131385   20.91744615   14.19543165
      H        7.98452615    4.94839385   11.67040835
      H        7.98452615   20.91744615   11.67040835
      H       17.88131385    4.94839385   14.19543165
      H        4.94839385   11.67040835   17.88131385
      H       20.91744615   14.19543165    7.98452615
      H        4.94839385   14.19543165    7.98452615
      H       20.91744615   11.67040835   17.88131385
      H       20.91744615   11.67040835    7.98452615
      H        4.94839385   14.19543165   17.88131385
      H       20.91744615   14.19543165   17.88131385
      H        4.94839385   11.67040835    7.98452615
      H        7.98452615   24.60332835   17.88131385
      H       17.88131385    1.26251165    7.98452615
      H       17.88131385    1.26251165   17.88131385
      H        7.98452615   24.60332835    7.98452615
      H       17.88131385   24.60332835    7.98452615
      H        7.98452615    1.26251165   17.88131385
      H        7.98452615    1.26251165    7.98452615
      H       17.88131385   24.60332835   17.88131385
      H        4.94839385   20.91744615   24.60332835
      H       20.91744615    4.94839385    1.26251165
      H        4.94839385    4.94839385    1.26251165
      H       20.91744615   20.91744615   24.60332835
      H       20.91744615    4.94839385   24.60332835
      H        4.94839385   20.91744615    1.26251165
      H       20.91744615   20.91744615    1.26251165
      H        4.94839385    4.94839385   24.60332835
      H        7.98452615   17.88131385    1.26251165
      H       17.88131385    7.98452615   24.60332835
      H       17.88131385   17.88131385   24.60332835
      H        7.98452615    7.98452615    1.26251165
      H       17.88131385    7.98452615    1.26251165
      H        7.98452615   17.88131385   24.60332835
      H        7.98452615    7.98452615   24.60332835
      H       17.88131385   17.88131385    1.26251165
      H        4.94839385   24.60332835    4.94839385
      H       20.91744615    1.26251165   20.91744615
      H        4.94839385    1.26251165   20.91744615
      H       20.91744615   24.60332835    4.94839385
      H       20.91744615   24.60332835   20.91744615
      H        4.94839385    1.26251165    4.94839385
      H       20.91744615    1.26251165    4.94839385
      H        4.94839385   24.60332835   20.91744615
      H       24.60332835    4.94839385   20.91744615
      H        1.26251165   20.91744615    4.94839385
      H        1.26251165    4.94839385    4.94839385
      H       24.60332835   20.91744615   20.91744615
      H       24.60332835   20.91744615    4.94839385
      H        1.26251165    4.94839385   20.91744615
      H        1.26251165   20.91744615   20.91744615
      H       24.60332835    4.94839385    4.94839385
      H       24.60332835    7.98452615    7.98452615
      H        1.26251165   17.88131385   17.88131385
      H        1.26251165   17.88131385    7.98452615
      H       24.60332835    7.98452615   17.88131385
      H       24.60332835   17.88131385   17.88131385
      H        1.26251165    7.98452615    7.98452615
      H        1.26251165    7.98452615   17.88131385
      H       24.60332835   17.88131385    7.98452615
    &END COORD
    &KIND Zn   
      ELEMENT Zn
      BASIS_SET DZVP-MOLOPT-SR-GTH
      POTENTIAL GTH-PBE
    &END KIND
    &KIND O    
      ELEMENT O 
      BASIS_SET TZVP-MOLOPT-GTH
      POTENTIAL GTH-PBE
    &END KIND
    &KIND C    
      ELEMENT C 
      BASIS_SET TZVP-MOLOPT-GTH
      POTENTIAL GTH-PBE
    &END KIND
    &KIND H    
      ELEMENT H 
      BASIS_SET TZVP-MOLOPT-GTH
      POTENTIAL GTH-PBE
    &END KIND
  &END SUBSYS

  &DFT
    BASIS_SET_FILE_NAME  BASIS_MOLOPT
    POTENTIAL_FILE_NAME  POTENTIAL
#   WFN_RESTART_FILE_NAME CP2K_REPEAT-RESTART.wfn
    CHARGE    0 #Net charge
    MULTIPLICITY    1 #Spin multiplicity
    &QS
      EPS_DEFAULT 1E-10 #This is default. Set all EPS_xxx to values such that the energy will be correct up to this value
    &END QS
    &POISSON
      PERIODIC XYZ #Direction(s) of PBC for calculating electrostatics
      PSOLVER PERIODIC #The way to solve Poisson equation
    &END POISSON
    &XC
      &XC_FUNCTIONAL PBE
      &END XC_FUNCTIONAL
    &END XC
    &MGRID
      CUTOFF 350
      REL_CUTOFF 50
      NGRIDS 5 #The number of multigrids to use. 5 is optimal for MOLOPT-GTH basis sets
    &END MGRID
    &SCF
      MAX_SCF 128
      EPS_SCF 5.0E-06 #Convergence threshold of density matrix during SCF
#     SCF_GUESS RESTART #Use wavefunction from WFN_RESTART_FILE_NAME file as initial guess
      &DIAGONALIZATION
        ALGORITHM STANDARD #Algorithm for diagonalization. DAVIDSON is faster for large systems
      &END DIAGONALIZATION
      &MIXING #How to mix old and new density matrices
        METHOD BROYDEN_MIXING #PULAY_MIXING is also a good alternative
        ALPHA 0.4 #Default. Mixing 40% of new density matrix with the old one
        NBROYDEN 8 #Default is 4. Number of previous steps stored for the actual mixing scheme
      &END MIXING
    &END SCF
    &PRINT
    &END PRINT
  &END DFT

  &PROPERTIES
    &RESP
    USE_REPEAT_METHOD T
      &SPHERE_SAMPLING
        AUTO_VDW_RADII_TABLE CAMBRIDGE #vdW radii type. This is default. Can also be UFF
        AUTO_RMIN_SCALE 1.0 #Scaled factor of vdW radii determining the inner boundary of sampling
        AUTO_RMAX_SCALE 2.0 #Scaled factor of vdW radii determining the outer boundary of sampling
      &END SPHERE_SAMPLING
      #Uncomment following lines can use slab sampling of fitting points
      #&SLAB_SAMPLING #The fitting points will sampled above a slab
      #  RANGE 2.0 4.0
      #  LENGTH 3.0
      #  ATOM_LIST 1..32 #List of considered atoms
      #  SURF_DIRECTION Z #What above the surface means. Can also be e.g. -Z, X, Z...
      #&END SLAB_SAMPLING
      &PRINT
        &COORD_FIT_POINTS
        &END COORD_FIT_POINTS
        &RESP_CHARGES_TO_FILE
        &END RESP_CHARGES_TO_FILE
      &END PRINT
    &END RESP
  &END PROPERTIES
&END FORCE_EVAL
